Linux optc-01-06 4.15.0-88-generic #88-Ubuntu SMP Tue Feb 11 20:11:34 UTC 2020 x86_64 x86_64 x86_64 GNU/Linux

top - 01:00:54 up 1 min,  0 users,  load average: 0,77, 0,25, 0,09
Tasks: 316 gesamt,   1 laufend, 150 schlafend,   0 gestoppt,   0 Zombie
%CPU(s):  4,4 be,  1,0 sy,  0,0 ni, 94,0 un,  0,6 wa,  0,0 hi,  0,0 si,  0,0 st
KiB Spch : 97514752 gesamt, 96564840 frei,   447068 belegt,   502840 Puff/Cache
KiB Swap:  8388604 gesamt,  8388604 frei,        0 belegt. 96375008 verfü Spch 

  PID USER      PR  NI    VIRT    RES    SHR S  %CPU %MEM     ZEIT+ BEFEHL
    1 root      20   0   78000   9136   6724 S   0,0  0,0   0:01.64 systemd
    2 root      20   0       0      0      0 S   0,0  0,0   0:00.00 kthreadd
    3 root      20   0       0      0      0 I   0,0  0,0   0:00.44 kworker/0:0
    4 root       0 -20       0      0      0 I   0,0  0,0   0:00.00 kworker/0:+
    5 root      20   0       0      0      0 I   0,0  0,0   0:00.00 kworker/u3+
    6 root      20   0       0      0      0 I   0,0  0,0   0:00.00 kworker/u3+
    7 root       0 -20       0      0      0 I   0,0  0,0   0:00.00 mm_percpu_+
    8 root      20   0       0      0      0 S   0,0  0,0   0:00.00 ksoftirqd/0

hard time limit: 00-04:10:00
hard mem limit: 38600

SLURM jobID: 6209978

@01 /nfs/OPTI/bzfhende/instances//./miplib2010_publically_available/instances/nexp-100-20-1-1.mps.gz ===========
-----------------------------
Mi 26. Feb 01:00:54 CET 2020
-----------------------------
@03 1582675254
@05 7200
SCIP version 7.0.0 [precision: 8 byte] [memory: block] [mode: optimized] [LP solver: CPLEX 12.10.0.0] [GitHash: 297532de76]
Copyright (C) 2002-2020 Konrad-Zuse-Zentrum fuer Informationstechnik Berlin (ZIB)

External codes: 
  Readline 7.0         GNU library for command line editing (gnu.org/s/readline)
  CPLEX 12.10.0.0      Linear Programming Solver developed by IBM (www.cplex.com)
  CppAD 20180000.0     Algorithmic Differentiation of C++ algorithms developed by B. Bell (www.coin-or.org/CppAD)
  ZLIB 1.2.11          General purpose compression library by J. Gailly and M. Adler (zlib.net)
  GMP 6.1.2            GNU Multiple Precision Arithmetic Library developed by T. Granlund (gmplib.org)
  bliss 0.73p          Computing Graph Automorphism Groups by T. Junttila and P. Kaski (http://www.tcs.hut.fi/Software/bliss/)

user parameter file <scip.set> not found - using default parameters

SCIP> 
SCIP> set load /home/optimi/bzfhende/opti/scip-opti/check/../settings/periodic_reeport.set
loaded parameter file </home/optimi/bzfhende/opti/scip-opti/check/../settings/periodic_report.set>
SCIP> set limits time 7200
limits/time = 7200
SCIP> set limits nodes 2100000000
limits/nodes = 2100000000
SCIP> set limits memory 35000
limits/memory = 35000
SCIP> set lp advanced threads 1
lp/threads = 1
SCIP> set timing clocktype 1
timing/clocktype = 1
SCIP> set display freq 10000
display/freq = 10000
SCIP> set memory savefac 1.0
memory/savefac = 1
SCIP> set save /home/optimi/bzfhende/opti/scip-opti/check/treesize.prediction.fc//bzfhende.instancegroups_fc.89_nexp-100-20-1-1.scip.M640.periodic_report.set
saved parameter file </home/optimi/bzfhende/opti/scip-opti/check/treesize.prediction.fc/bzfhende.instancegroups_fc.89_nexp-100-20-1-1.scip.M640.periodic_report.set>
SCIP> read /nfs/OPTI/bzfhende/instances//./miplib2010_publically_available/instannces/nexp-100-20-1-1.mps.gz

read problem </nfs/OPTI/bzfhende/instances//./miplib2010_publically_available/instances/nexp-100-20-1-1.mps.gz>
============

original problem has 1980 variables (990 bin, 0 int, 0 impl, 990 cont) and 2080 constraints
SCIP> display parameters

number of parameters = 2603
non-default parameter settings:
display/freq = 10000
limits/time = 7200
limits/nodes = 2100000000
limits/memory = 35000
lp/threads = 1
memory/savefac = 1
timing/clocktype = 1
estimation/reportfreq = 100
estimation/treeprofile/enabled = TRUE

SCIP> optimize

presolving:
(round 1, fast)       203 del vars, 1193 del conss, 0 add conss, 883 chg bounds, 0 chg sides, 0 chg coeffs, 0 upgd conss, 0 impls, 0 clqs
(round 2, fast)       310 del vars, 1193 del conss, 0 add conss, 883 chg bounds, 0 chg sides, 0 chg coeffs, 0 upgd conss, 0 impls, 1 clqs
(round 3, exhaustive) 310 del vars, 1193 del conss, 0 add conss, 883 chg bounds, 0 chg sides, 0 chg coeffs, 787 upgd conss, 0 impls, 1 clqs
   (0.0s) probing: 51/883 (5.8%) - 0 fixings, 0 aggregations, 0 implications, 0 bound changes
   (0.0s) probing aborted: 50/50 successive totally useless probings
   (0.0s) symmetry computation started: requiring (bin +, int +, cont +), (fixed: bin -, int -, cont -)
   (0.0s) no symmetry present
presolving (4 rounds: 4 fast, 2 medium, 2 exhaustive):
 310 deleted vars, 1193 deleted constraints, 0 added constraints, 883 tightened bounds, 0 added holes, 0 changed sides, 0 changed coefficients
 787 implications, 1 cliques
presolved problem has 1670 variables (883 bin, 0 int, 0 impl, 787 cont) and 887 constraints
    787 constraints of type <varbound>
    100 constraints of type <linear>
transformed objective value is always integral (scale: 1)
Presolving Time: 0.02

 time | node  | left  |LP iter|LP it/n|mem/heur|mdpt |vars |cons |rows |cuts |sepa|confs|strbr|  dualbound   | primalbound  |  gap   | compl. 
p 0.0s|     1 |     0 |    16 |     - |   locks|   0 |1670 | 887 | 887 |   0 |  0 |   0 |   0 | 0.000000e+00 | 8.830000e+02 |    Inf | unknown
i 0.0s|     1 |     0 |    16 |     - |  oneopt|   0 |1670 | 887 | 887 |   0 |  0 |   0 |   0 | 0.000000e+00 | 1.260000e+02 |    Inf | unknown
  0.0s|     1 |     0 |    97 |     - |    16M |   0 |1670 | 887 | 887 |   0 |  0 |   0 |   0 | 4.390000e+01 | 1.260000e+02 | 187.02%| unknown
r 0.0s|     1 |     0 |    97 |     - |simplero|   0 |1670 | 887 | 887 |   0 |  0 |   0 |   0 | 4.390000e+01 | 6.300000e+01 |  43.51%| unknown
i 0.0s|     1 |     0 |   137 |     - |  oneopt|   0 |1670 | 887 | 887 |   0 |  0 |   0 |   0 | 4.390000e+01 | 5.500000e+01 |  25.28%| unknown
  0.1s|     1 |     0 |   169 |     - |    19M |   0 |1670 | 887 | 910 |  23 |  1 |   0 |   0 | 4.700000e+01 | 5.500000e+01 |  17.02%| unknown
  0.1s|     1 |     0 |   170 |     - |    19M |   0 |1670 | 887 | 911 |  24 |  2 |   0 |   0 | 4.700000e+01 | 5.500000e+01 |  17.02%| unknown
  0.1s|     1 |     0 |   208 |     - |    20M |   0 |1670 | 887 | 929 |  42 |  3 |   0 |   0 | 4.710000e+01 | 5.500000e+01 |  16.77%| unknown
  0.1s|     1 |     0 |   237 |     - |    20M |   0 |1670 | 887 | 943 |  56 |  4 |   0 |   0 | 4.730000e+01 | 5.500000e+01 |  16.28%| unknown
  0.1s|     1 |     0 |   272 |     - |    20M |   0 |1670 | 887 | 957 |  70 |  5 |   0 |   0 | 4.780000e+01 | 5.500000e+01 |  15.06%| unknown
  0.1s|     1 |     0 |   308 |     - |    20M |   0 |1670 | 887 | 963 |  76 |  6 |   0 |   0 | 4.780000e+01 | 5.500000e+01 |  15.06%| unknown
  0.1s|     1 |     0 |   341 |     - |    20M |   0 |1670 | 887 | 967 |  80 |  7 |   0 |   0 | 4.780000e+01 | 5.500000e+01 |  15.06%| unknown
  0.1s|     1 |     0 |   389 |     - |    21M |   0 |1670 | 887 | 976 |  89 |  8 |   0 |   0 | 4.780000e+01 | 5.500000e+01 |  15.06%| unknown
  0.1s|     1 |     0 |   423 |     - |    21M |   0 |1670 | 887 | 985 |  98 |  9 |   0 |   0 | 4.782638e+01 | 5.500000e+01 |  15.00%| unknown
  0.1s|     1 |     0 |   451 |     - |    22M |   0 |1670 | 887 | 997 | 110 | 10 |   0 |   0 | 4.797278e+01 | 5.500000e+01 |  14.65%| unknown
 time | node  | left  |LP iter|LP it/n|mem/heur|mdpt |vars |cons |rows |cuts |sepa|confs|strbr|  dualbound   | primalbound  |  gap   | compl. 
  0.1s|     1 |     0 |   474 |     - |    22M |   0 |1670 | 887 |1002 | 115 | 11 |   0 |   0 | 4.797278e+01 | 5.500000e+01 |  14.65%| unknown
  0.2s|     1 |     0 |   490 |     - |    22M |   0 |1670 | 887 |1007 | 120 | 12 |   0 |   0 | 4.797278e+01 | 5.500000e+01 |  14.65%| unknown
  0.2s|     1 |     0 |   511 |     - |    23M |   0 |1670 | 887 |1012 | 125 | 13 |   0 |   0 | 4.797278e+01 | 5.500000e+01 |  14.65%| unknown
  0.2s|     1 |     0 |   524 |     - |    23M |   0 |1670 | 887 |1015 | 128 | 14 |   0 |   0 | 4.797278e+01 | 5.500000e+01 |  14.65%| unknown
  0.2s|     1 |     0 |   546 |     - |    23M |   0 |1670 | 887 | 993 | 132 | 15 |   0 |   0 | 4.799542e+01 | 5.500000e+01 |  14.59%| unknown
r 0.2s|     1 |     0 |   546 |     - |shifting|   0 |1670 | 887 | 993 | 132 | 15 |   0 |   0 | 4.799542e+01 | 5.400000e+01 |  12.51%| unknown
  0.2s|     1 |     0 |   553 |     - |    24M |   0 |1670 | 887 | 994 | 133 | 16 |   0 |   0 | 4.799542e+01 | 5.400000e+01 |  12.51%| unknown
i 0.2s|     1 |     0 |   589 |     - |  oneopt|   0 |1670 | 887 | 994 | 133 | 16 |   0 |   0 | 4.799542e+01 | 5.100000e+01 |   6.26%| unknown
  0.2s|     1 |     0 |   593 |     - |    24M |   0 |1670 | 887 | 995 | 134 | 17 |   0 |   0 | 4.800000e+01 | 5.100000e+01 |   6.25%| unknown
  0.2s|     1 |     0 |   594 |     - |    24M |   0 |1670 | 887 | 996 | 135 | 18 |   0 |   0 | 4.800000e+01 | 5.100000e+01 |   6.25%| unknown
L 0.2s|     1 |     0 |   594 |     - |    alns|   0 |1670 | 887 | 996 | 135 | 20 |   0 |   0 | 4.800000e+01 | 4.800000e+01 |   0.00%| unknown
  0.2s|     1 |     0 |   594 |     - |    25M |   0 |1670 | 887 | 996 | 135 | 20 |   0 |   0 | 4.800000e+01 | 4.800000e+01 |   0.00%| unknown
Report 1
Time Elapsed: 0.20
Estim. Tree Size   :          1
Estimation Tree    : 1 nodes (1 visited, 0 inner, 1 leaves, 0 open), weight: 1.0000 completed 1.0000
Estimations        :      estim      value      trend resolution     smooth
  wbe              :          1          -          -          -          -
  tree-profile     :         -1          -          -          -          -
  gap              :          1    1.00000    1.00000          1          1
  tree-weight      :          1    1.00000    1.00000          1          1
  leaf-frequency   :          1    0.50000    1.00000          1          1
  ssg              :          1    0.00000   -1.00000          1          1
  open-nodes       :          1    0.00000    0.00000          1          1
End of Report 1


SCIP Status        : problem is solved [optimal solution found]
Solving Time (sec) : 0.20
Solving Nodes      : 1
Primal Bound       : +4.80000000000000e+01 (31 solutions)
Dual Bound         : +4.80000000000000e+01
Gap                : 0.00 %

SCIP> display statistics

SCIP Status        : problem is solved [optimal solution found]
Total Time         :       0.21
  solving          :       0.20
  presolving       :       0.02 (included in solving)
  reading          :       0.01
  copying          :       0.01 (1 #copies) (minimal 0.01, maximal 0.01, average 0.01)
Original Problem   :
  Problem name     : nexp-100-20-1-1
  Variables        : 1980 (990 binary, 0 integer, 0 implicit integer, 990 continuous)
  Constraints      : 2080 initial, 2080 maximal
  Objective        : minimize, 990 non-zeros (abs.min = 1, abs.max = 1)
Presolved Problem  :
  Problem name     : t_nexp-100-20-1-1
  Variables        : 1670 (883 binary, 0 integer, 0 implicit integer, 787 continuous)
  Constraints      : 887 initial, 887 maximal
  Objective        : minimize, 883 non-zeros (abs.min = 1, abs.max = 1)
  Nonzeros         : 3340 constraint, 3 clique table
Presolvers         :   ExecTime  SetupTime  Calls  FixedVars   AggrVars   ChgTypes  ChgBounds   AddHoles    DelCons    AddCons   ChgSides   ChgCoefs
  boundshift       :       0.00       0.00      0          0          0          0          0          0          0          0          0          0
  convertinttobin  :       0.00       0.00      0          0          0          0          0          0          0          0          0          0
  domcol           :       0.00       0.00      1          0          0          0          0          0          0          0          0          0
  dualagg          :       0.00       0.00      0          0          0          0          0          0          0          0          0          0
  dualcomp         :       0.00       0.00      1          0          0          0          0          0          0          0          0          0
  dualinfer        :       0.00       0.00      0          0          0          0          0          0          0          0          0          0
  dualsparsify     :       0.00       0.00      1          0          0          0          0          0          0          0          0          0
  gateextraction   :       0.00       0.00      0          0          0          0          0          0          0          0          0          0
  implics          :       0.00       0.00      2          0          0          0          0          0          0          0          0          0
  inttobinary      :       0.00       0.00      0          0          0          0          0          0          0          0          0          0
  qpkktref         :       0.00       0.00      0          0          0          0          0          0          0          0          0          0
  redvub           :       0.00       0.00      0          0          0          0          0          0          0          0          0          0
  sparsify         :       0.00       0.00      1          0          0          0          0          0          0          0          0          0
  stuffing         :       0.00       0.00      0          0          0          0          0          0          0          0          0          0
  trivial          :       0.00       0.00      4          0          0          0          0          0          0          0          0          0
  tworowbnd        :       0.00       0.00      1          0          0          0          0          0          0          0          0          0
  dualfix          :       0.00       0.00      4        214          0          0          0          0          0          0          0          0
  genvbounds       :       0.00       0.00      0          0          0          0          0          0          0          0          0          0
  probing          :       0.00       0.00      1          0          0          0          0          0          0          0          0          0
  pseudoobj        :       0.00       0.00      0          0          0          0          0          0          0          0          0          0
  symmetry         :       0.00       0.00      1          0          0          0          0          0          0          0          0          0
  vbounds          :       0.00       0.00      0          0          0          0          0          0          0          0          0          0
  varbound         :       0.00       0.00      2          0          0          0          0          0          0          0          0          0
  linear           :       0.02       0.00      6          0         96          0        883          0       1193          0          0          0
  benders          :       0.00       0.00      0          0          0          0          0          0          0          0          0          0
  components       :       0.00       0.00      1          0          0          0          0          0          0          0          0          0
  root node        :          -          -      -          0          -          -          0          -          -          -          -          -
Constraints        :     Number  MaxNumber  #Separate #Propagate    #EnfoLP    #EnfoRelax  #EnfoPS    #Check   #ResProp    Cutoffs    DomReds       Cuts    Applied      Conss   Children
  benderslp        :          0          0          0          0          0          0          0         59          0          0          0          0          0          0          0
  integral         :          0          0          0          0          0          0          0         59          0          0          0          0          0          0          0
  varbound         :        787        787         19        501          0          0          0         53          0          0          0          0          0          0          0
  linear           :        100        100         19        501          0          0          0         35          0          0          0         18          6          0          0
  benders          :          0          0          0          0          0          0          0         32          0          0          0          0          0          0          0
  countsols        :          0          0          0          0          0          0          0         32          0          0          0          0          0          0          0
  components       :          0          0          0          0          0          0          0          0          0          0          0          0          0          0          0
Constraint Timings :  TotalTime  SetupTime   Separate  Propagate     EnfoLP     EnfoPS     EnfoRelax   Check    ResProp    SB-Prop
  benderslp        :       0.00       0.00       0.00       0.00       0.00       0.00       0.00       0.00       0.00       0.00
  integral         :       0.00       0.00       0.00       0.00       0.00       0.00       0.00       0.00       0.00       0.00
  varbound         :       0.01       0.00       0.00       0.01       0.00       0.00       0.00       0.00       0.00       0.00
  linear           :       0.00       0.00       0.00       0.00       0.00       0.00       0.00       0.00       0.00       0.00
  benders          :       0.00       0.00       0.00       0.00       0.00       0.00       0.00       0.00       0.00       0.00
  countsols        :       0.00       0.00       0.00       0.00       0.00       0.00       0.00       0.00       0.00       0.00
  components       :       0.00       0.00       0.00       0.00       0.00       0.00       0.00       0.00       0.00       0.00
Propagators        : #Propagate   #ResProp    Cutoffs    DomReds
  dualfix          :          2          0          0          0
  genvbounds       :          0          0          0          0
  nlobbt           :          0          0          0          0
  obbt             :          0          0          0          0
  probing          :          0          0          0          0
  pseudoobj        :         22          0          0          0
  redcost          :         20          0          0          0
  rootredcost      :          0          0          0          0
  symmetry         :          0          0          0          0
  vbounds          :        452          0          0          0
Propagator Timings :  TotalTime  SetupTime   Presolve  Propagate    ResProp    SB-Prop
  dualfix          :       0.00       0.00       0.00       0.00       0.00       0.00
  genvbounds       :       0.00       0.00       0.00       0.00       0.00       0.00
  nlobbt           :       0.00       0.00       0.00       0.00       0.00       0.00
  obbt             :       0.00       0.00       0.00       0.00       0.00       0.00
  probing          :       0.00       0.00       0.00       0.00       0.00       0.00
  pseudoobj        :       0.00       0.00       0.00       0.00       0.00       0.00
  redcost          :       0.00       0.00       0.00       0.00       0.00       0.00
  rootredcost      :       0.00       0.00       0.00       0.00       0.00       0.00
  symmetry         :       0.00       0.00       0.00       0.00       0.00       0.00
  vbounds          :       0.00       0.00       0.00       0.00       0.00       0.00
Conflict Analysis  :       Time      Calls    Success    DomReds  Conflicts   Literals    Reconvs ReconvLits   Dualrays   Nonzeros   LP Iters   (pool size: [--,--])
  propagation      :       0.00          0          0          -          0        0.0          0        0.0          -          -          -
  infeasible LP    :       0.00          0          0          -          0        0.0          0        0.0          0        0.0          0
  bound exceed. LP :       0.00          0          0          -          0        0.0          0        0.0          0        0.0          0
  strong branching :       0.00          0          0          -          0        0.0          0        0.0          -          -          0
  pseudo solution  :       0.00          0          0          -          0        0.0          0        0.0          -          -          -
  applied globally :       0.00          -          -          0          0        0.0          -          -          0          -          -
  applied locally  :          -          -          -          0          0        0.0          -          -          0          -          -
Separators         :   ExecTime  SetupTime      Calls    Cutoffs    DomReds       Cuts    Applied      Conss
  cut pool         :       0.00                    36          -          -        255          -          -    (maximal pool size: 735)
  aggregation      :       0.00       0.00         18          0          0        341          0          0
  cgmip            :       0.00       0.00          0          0          0          0          0          0
  clique           :       0.00       0.00         18          0          0          0          0          0
  closecuts        :       0.00       0.00          0          0          0          0          0          0
  cmir             :       0.00       0.00          0          0          0          0         76          0
  convexproj       :       0.00       0.00          0          0          0          0          0          0
  disjunctive      :       0.00       0.00          0          0          0          0          0          0
  eccuts           :       0.00       0.00          0          0          0          0          0          0
  flowcover        :       0.00       0.00          0          0          0          0          1          0
  gauge            :       0.00       0.00          0          0          0          0          0          0
  gomory           :       0.03       0.00         10          0          0        229         34          0
  impliedbounds    :       0.00       0.00         18          0          0          0          0          0
  intobj           :       0.00       0.00          0          0          0          0          0          0
  mcf              :       0.06       0.00          8          0          0        151          3          0
  oddcycle         :       0.00       0.00          0          0          0          0          0          0
  rapidlearning    :       0.00       0.00          0          0          0          0          0          0
  strongcg         :       0.01       0.00         18          0          0         88          2          0
  zerohalf         :       0.01       0.00         18          0          0         20         13          0
Pricers            :   ExecTime  SetupTime      Calls       Vars
  problem variables:       0.00          -          0          0
Branching Rules    :   ExecTime  SetupTime   BranchLP  BranchExt   BranchPS    Cutoffs    DomReds       Cuts      Conss   Children
  allfullstrong    :       0.00       0.00          0          0          0          0          0          0          0          0
  cloud            :       0.00       0.00          0          0          0          0          0          0          0          0
  distribution     :       0.00       0.00          0          0          0          0          0          0          0          0
  fullstrong       :       0.00       0.00          0          0          0          0          0          0          0          0
  inference        :       0.00       0.00          0          0          0          0          0          0          0          0
  leastinf         :       0.00       0.00          0          0          0          0          0          0          0          0
  lookahead        :       0.00       0.00          0          0          0          0          0          0          0          0
  mostinf          :       0.00       0.00          0          0          0          0          0          0          0          0
  multaggr         :       0.00       0.00          0          0          0          0          0          0          0          0
  nodereopt        :       0.00       0.00          0          0          0          0          0          0          0          0
  pscost           :       0.00       0.00          0          0          0          0          0          0          0          0
  random           :       0.00       0.00          0          0          0          0          0          0          0          0
  relpscost        :       0.00       0.00          0          0          0          0          0          0          0          0
  vanillafullstrong:       0.00       0.00          0          0          0          0          0          0          0          0
Primal Heuristics  :   ExecTime  SetupTime      Calls      Found       Best
  LP solutions     :       0.00          -          -          0          0
  relax solutions  :       0.00          -          -          0          0
  pseudo solutions :       0.00          -          -          0          0
  strong branching :       0.00          -          -          0          0
  actconsdiving    :       0.00       0.00          0          0          0
  adaptivediving   :       0.00       0.00          0          0          0
  alns             :       0.02       0.00          1          1          1
  bound            :       0.00       0.00          0          0          0
  clique           :       0.01       0.00          1          0          0
  coefdiving       :       0.00       0.00          0          0          0
  completesol      :       0.00       0.00          0          0          0
  conflictdiving   :       0.00       0.00          0          0          0
  crossover        :       0.00       0.00          0          0          0
  dins             :       0.00       0.00          0          0          0
  distributiondivin:       0.00       0.00          0          0          0
  dualval          :       0.00       0.00          0          0          0
  farkasdiving     :       0.00       0.00          0          0          0
  feaspump         :       0.00       0.00          0          0          0
  fixandinfer      :       0.00       0.00          0          0          0
  fracdiving       :       0.00       0.00          0          0          0
  gins             :       0.00       0.00          0          0          0
  guideddiving     :       0.00       0.00          0          0          0
  indicator        :       0.00       0.00          0          0          0
  intdiving        :       0.00       0.00          0          0          0
  intshifting      :       0.00       0.00          0          0          0
  linesearchdiving :       0.00       0.00          0          0          0
  localbranching   :       0.00       0.00          0          0          0
  locks            :       0.00       0.00          1          1          1
  lpface           :       0.00       0.00          0          0          0
  mpec             :       0.00       0.00          0          0          0
  multistart       :       0.00       0.00          0          0          0
  mutation         :       0.00       0.00          0          0          0
  nlpdiving        :       0.00       0.00          0          0          0
  objpscostdiving  :       0.00       0.00          0          0          0
  octane           :       0.00       0.00          0          0          0
  ofins            :       0.00       0.00          0          0          0
  oneopt           :       0.00       0.00          3          3          3
  padm             :       0.00       0.00          0          0          0
  proximity        :       0.00       0.00          0          0          0
  pscostdiving     :       0.00       0.00          0          0          0
  randrounding     :       0.01       0.00         18          0          0
  rens             :       0.00       0.00          0          0          0
  reoptsols        :       0.00       0.00          0          0          0
  repair           :       0.00       0.00          0          0          0
  rins             :       0.00       0.00          0          0          0
  rootsoldiving    :       0.00       0.00          0          0          0
  rounding         :       0.00       0.00         18          0          0
  shiftandpropagate:       0.00       0.00          0          0          0
  shifting         :       0.00       0.00         18          8          1
  simplerounding   :       0.01       0.00         19         18          1
  subnlp           :       0.00       0.00          0          0          0
  trivial          :       0.00       0.00          2          0          0
  trivialnegation  :       0.00       0.00          0          0          0
  trustregion      :       0.00       0.00          0          0          0
  trysol           :       0.00       0.00          0          0          0
  twoopt           :       0.00       0.00          0          0          0
  undercover       :       0.00       0.00          0          0          0
  vbounds          :       0.00       0.00          0          0          0
  veclendiving     :       0.00       0.00          0          0          0
  zeroobj          :       0.00       0.00          0          0          0
  zirounding       :       0.00       0.00          0          0          0
  other solutions  :          -          -          -          0          -
Diving (single)    :      Calls      Nodes   LP Iters Backtracks  Conflicts   MinDepth   MaxDepth   AvgDepth  RoundSols  NLeafSols  MinSolDpt  MaxSolDpt  AvgSolDpt
  actconsdiving    :          0          -          -          -          -          -          -          -          -          -          -          -          -
  coefdiving       :          0          -          -          -          -          -          -          -          -          -          -          -          -
  conflictdiving   :          0          -          -          -          -          -          -          -          -          -          -          -          -
  distributiondivin:          0          -          -          -          -          -          -          -          -          -          -          -          -
  farkasdiving     :          0          -          -          -          -          -          -          -          -          -          -          -          -
  fracdiving       :          0          -          -          -          -          -          -          -          -          -          -          -          -
  guideddiving     :          0          -          -          -          -          -          -          -          -          -          -          -          -
  linesearchdiving :          0          -          -          -          -          -          -          -          -          -          -          -          -
  pscostdiving     :          0          -          -          -          -          -          -          -          -          -          -          -          -
  veclendiving     :          0          -          -          -          -          -          -          -          -          -          -          -          -
Diving (adaptive)  :      Calls      Nodes   LP Iters Backtracks  Conflicts   MinDepth   MaxDepth   AvgDepth  RoundSols  NLeafSols  MinSolDpt  MaxSolDpt  AvgSolDpt
  actconsdiving    :          0          -          -          -          -          -          -          -          -          -          -          -          -
  coefdiving       :          0          -          -          -          -          -          -          -          -          -          -          -          -
  conflictdiving   :          0          -          -          -          -          -          -          -          -          -          -          -          -
  distributiondivin:          0          -          -          -          -          -          -          -          -          -          -          -          -
  farkasdiving     :          0          -          -          -          -          -          -          -          -          -          -          -          -
  fracdiving       :          0          -          -          -          -          -          -          -          -          -          -          -          -
  guideddiving     :          0          -          -          -          -          -          -          -          -          -          -          -          -
  linesearchdiving :          0          -          -          -          -          -          -          -          -          -          -          -          -
  pscostdiving     :          0          -          -          -          -          -          -          -          -          -          -          -          -
  veclendiving     :          0          -          -          -          -          -          -          -          -          -          -          -          -
Neighborhoods      :      Calls  SetupTime  SolveTime SolveNodes       Sols       Best       Exp3  EpsGreedy        UCB TgtFixRate  Opt  Inf Node Stal  Sol  Usr Othr Actv
  rens             :          0       0.00       0.00          0          0          0    0.00000   -1.00000    1.00000      0.900    0    0    0    0    0    0    0    1
  rins             :          1       0.02       0.00          1          1          1    0.00000   -1.00000    1.00000      0.700    1    0    0    0    0    0    0    1
  mutation         :          0       0.00       0.00          0          0          0    0.00000   -1.00000    1.00000      0.900    0    0    0    0    0    0    0    1
  localbranching   :          0       0.00       0.00          0          0          0    0.00000   -1.00000    1.00000      0.900    0    0    0    0    0    0    0    1
  crossover        :          0       0.00       0.00          0          0          0    0.00000   -1.00000    1.00000      0.900    0    0    0    0    0    0    0    1
  proximity        :          0       0.00       0.00          0          0          0    0.00000   -1.00000    1.00000      0.900    0    0    0    0    0    0    0    1
  zeroobjective    :          0       0.00       0.00          0          0          0    0.00000   -1.00000    1.00000      0.900    0    0    0    0    0    0    0    1
  dins             :          0       0.00       0.00          0          0          0    0.00000   -1.00000    1.00000      0.900    0    0    0    0    0    0    0    1
  trustregion      :          0       0.00       0.00          0          0          0    0.00000   -1.00000    1.00000      0.900    0    0    0    0    0    0    0    0
LP                 :       Time      Calls Iterations  Iter/call   Iter/sec  Time-0-It Calls-0-It    ItLimit
  primal LP        :       0.00          1          0       0.00          -       0.00          1
  dual LP          :       0.01         19        502      26.42   50200.00       0.00          0
  lex dual LP      :       0.00          0          0       0.00          -
  barrier LP       :       0.00          0          0       0.00          -       0.00          0
  resolve instable :       0.00          0          0       0.00          -
  diving/probing LP:       0.00          3         92      30.67          -
  strong branching :       0.00          0          0       0.00          -          -          -          0
    (at root node) :          -          0          0       0.00          -
  conflict analysis:       0.00          0          0       0.00          -
B&B Tree           :
  number of runs   :          1
  nodes            :          1 (0 internal, 1 leaves)
  feasible leaves  :          0
  infeas. leaves   :          0
  objective leaves :          1
  nodes (total)    :          1 (0 internal, 1 leaves)
  nodes left       :          0
  max depth        :          0
  max depth (total):          0
  backtracks       :          0 (0.0%)
  early backtracks :          0 (0.0%)
  nodes exc. ref.  :          0 (0.0%)
  delayed cutoffs  :          0
  repropagations   :          0 (0 domain reductions, 0 cutoffs)
  avg switch length:       2.00
  switching time   :       0.00
Estim. Tree Size   :          1
Estimation Tree    : 1 nodes (1 visited, 0 inner, 1 leaves, 0 open), weight: 1.0000 completed 1.0000
Estimations        :      estim      value      trend resolution     smooth
  wbe              :          1          -          -          -          -
  tree-profile     :         -1          -          -          -          -
  gap              :          1    1.00000    1.00000          1          1
  tree-weight      :          1    1.00000    1.00000          1          1
  leaf-frequency   :          1    0.50000    1.00000          1          1
  ssg              :          1    0.00000   -1.00000          1          1
  open-nodes       :          1    0.00000    0.00000          1          1
Root Node          :
  First LP value   : +4.39000000000000e+01
  First LP Iters   :         81
  First LP Time    :       0.00
  Final Dual Bound : +4.80000000000000e+01
  Final Root Iters :        578
  Root LP Estimate :                     -
Solution           :
  Solutions found  :         31 (7 improvements)
  First Solution   : +8.83000000000000e+02   (in run 1, after 1 nodes, 0.03 seconds, depth 2, found by <locks>)
  Gap First Sol.   :   infinite
  Gap Last Sol.    :       0.00 %
  Primal Bound     : +4.80000000000000e+01   (in run 1, after 1 nodes, 0.20 seconds, depth 0, found by <alns>)
  Dual Bound       : +4.80000000000000e+01
  Gap              :       0.00 %
Integrals          :      Total       Avg%
  primal-dual      :       5.45      27.23
  primal-ref       :          -          - (not evaluated)
  dual-ref         :          -          - (not evaluated)

SCIP> checksol

check best solution
solution is feasible in original problem
Violation          :    absolute    relative
  bounds           : 0.00000e+00 0.00000e+00
  integrality      : 0.00000e+00           -
  LP rows          : 0.00000e+00 0.00000e+00
  constraints      : 0.00000e+00 0.00000e+00

SCIP> write sol /local/tmp/bzfhende-tmpdir/bzfhende.instancegroups_fc.89_nexp-1000-20-1-1.scip.M640.periodic_report.sol

written solution information to file </local/tmp/bzfhende-tmpdir/bzfhende.instancegroups_fc.89_nexp-100-20-1-1.scip.M640.periodic_report.sol>

SCIP> quit

Read MPS: 1
MIP has 1980 vars and 2080 constraints
Read SOL: 1
Objective value computed by solver: 48

Integrality tolerance: 1/10000
Linear tolerance: 1/10000
Objective tolerance: 1/10000

Check SOL: Integrality 1 Constraints 1 Objective 1
Maximum violations: Integrality 0 Constraints 0 Objective 0
@04 1582675254
-----------------------------
Mi 26. Feb 01:00:54 CET 2020
-----------------------------

=ready=
